52965
5, 13, 37, 7, 40, 33, 38, 35, 17, 11, 23, 47, 39, 32, 51, 49, 41, 44, 6, 31, 52, 1, 15, 46, 16, 42, 28, 53, 43, 3, 55, 26, 34, 54, 30, 4, 18, 12, 9, 14, 2, 45, 25, 27, 36, 10, 22, 29, 21, 48, 19, 8, 50, 20, 24
